p cnf 420 1521
1 -2 -3 0
2 -1 -3 0
-1 -2 3 0
2 1 3 0
-4 -3 0
2 -1 -5 0
1 -2 -5 0
5 -2 -1 0
5 2 1 0
-6 5 0
-7 5 0
-8 5 0
9 -10 -11 0
10 -9 -11 0
-9 -10 11 0
10 9 11 0
-4 -11 0
10 -9 -12 0
9 -10 -12 0
12 -10 -9 0
12 10 9 0
-6 12 0
-7 12 0
-8 12 0
13 -14 -15 0
14 -13 -15 0
-13 -14 15 0
14 13 15 0
-4 -15 0
14 -13 -16 0
13 -14 -16 0
16 -14 -13 0
16 14 13 0
-6 16 0
-7 16 0
-8 16 0
17 -18 -19 0
18 -17 -19 0
-17 -18 19 0
18 17 19 0
-4 -19 0
18 -17 -20 0
17 -18 -20 0
20 -18 -17 0
20 18 17 0
-6 20 0
-7 20 0
-8 20 0
21 -22 -23 0
22 -21 -23 0
-21 -22 23 0
22 21 23 0
-4 -23 0
22 -21 -24 0
21 -22 -24 0
24 -22 -21 0
24 22 21 0
-6 24 0
-7 24 0
-8 24 0
25 -26 -27 0
26 -25 -27 0
-25 -26 27 0
26 25 27 0
-4 -27 0
26 -25 -28 0
25 -26 -28 0
28 -26 -25 0
28 26 25 0
-6 28 0
-7 28 0
-8 28 0
29 -30 -31 0
30 -29 -31 0
-29 -30 31 0
30 29 31 0
-4 -31 0
30 -29 -32 0
29 -30 -32 0
32 -30 -29 0
32 30 29 0
-6 32 0
-7 32 0
-8 32 0
33 -34 -35 0
34 -33 -35 0
-33 -34 35 0
34 33 35 0
-4 -35 0
34 -33 -36 0
33 -34 -36 0
36 -34 -33 0
36 34 33 0
-6 36 0
-7 36 0
-8 36 0
37 -38 -39 0
38 -37 -39 0
-37 -38 39 0
38 37 39 0
-4 -39 0
38 -37 -40 0
37 -38 -40 0
40 -38 -37 0
40 38 37 0
-6 40 0
-7 40 0
-8 40 0
41 -42 -43 0
42 -41 -43 0
-41 -42 43 0
42 41 43 0
-4 -43 0
42 -41 -44 0
41 -42 -44 0
44 -42 -41 0
44 42 41 0
-6 44 0
-7 44 0
-8 44 0
45 -46 -47 0
46 -45 -47 0
-45 -46 47 0
46 45 47 0
-4 -47 0
46 -48 -49 0
48 -46 -49 0
49 -46 -48 0
49 46 48 0
-6 49 0
-45 50 0
-51 50 0
45 51 -50 0
46 -50 -52 0
-46 50 -52 0
-46 -50 52 0
46 50 52 0
-7 52 0
45 53 0
51 53 0
-45 -51 -53 0
-46 53 -54 0
46 -53 -54 0
54 -53 -46 0
46 53 54 0
-8 -54 0
48 -51 -55 0
51 -48 -55 0
-48 -51 55 0
48 51 55 0
-4 -55 0
51 -56 -57 0
56 -51 -57 0
57 -51 -56 0
57 51 56 0
-6 57 0
-48 58 0
-59 58 0
48 59 -58 0
51 -58 -60 0
-51 58 -60 0
-51 -58 60 0
51 58 60 0
-7 60 0
48 61 0
59 61 0
-48 -59 -61 0
-51 61 -62 0
51 -61 -62 0
62 -61 -51 0
51 61 62 0
-8 -62 0
56 -59 -63 0
59 -56 -63 0
-56 -59 63 0
56 59 63 0
-4 -63 0
59 -56 -64 0
56 -59 -64 0
64 -59 -56 0
64 59 56 0
-6 64 0
-7 64 0
-8 64 0
65 -66 -67 0
66 -65 -67 0
-65 -66 67 0
66 65 67 0
-4 -67 0
66 -68 -69 0
68 -66 -69 0
69 -66 -68 0
69 66 68 0
-6 69 0
-65 70 0
-71 70 0
65 71 -70 0
66 -70 -72 0
-66 70 -72 0
-66 -70 72 0
66 70 72 0
-7 72 0
65 73 0
71 73 0
-65 -71 -73 0
-66 73 -74 0
66 -73 -74 0
74 -73 -66 0
66 73 74 0
-8 -74 0
68 -71 -75 0
71 -68 -75 0
-68 -71 75 0
68 71 75 0
-4 -75 0
71 -76 -77 0
76 -71 -77 0
77 -71 -76 0
77 71 76 0
-6 77 0
-68 78 0
-79 78 0
68 79 -78 0
71 -78 -80 0
-71 78 -80 0
-71 -78 80 0
71 78 80 0
-7 80 0
68 81 0
79 81 0
-68 -79 -81 0
-71 81 -82 0
71 -81 -82 0
82 -81 -71 0
71 81 82 0
-8 -82 0
76 -79 -83 0
79 -76 -83 0
-76 -79 83 0
76 79 83 0
-4 -83 0
-65 79 -84 0
65 -79 -84 0
84 -79 -65 0
84 79 65 0
-6 84 0
-65 85 0
-68 85 0
-76 85 0
65 68 76 -85 0
79 -85 -86 0
-79 85 -86 0
-79 -85 86 0
79 85 86 0
-7 86 0
65 87 0
68 87 0
76 87 0
-65 -68 -76 -87 0
-79 87 -88 0
79 -87 -88 0
88 -87 -79 0
79 87 88 0
-8 -88 0
89 -90 -91 0
90 -89 -91 0
-89 -90 91 0
90 89 91 0
-4 -91 0
90 -92 -93 0
92 -90 -93 0
93 -90 -92 0
93 90 92 0
-6 93 0
-89 94 0
-95 94 0
89 95 -94 0
90 -94 -96 0
-90 94 -96 0
-90 -94 96 0
90 94 96 0
-7 96 0
89 97 0
95 97 0
-89 -95 -97 0
-90 97 -98 0
90 -97 -98 0
98 -97 -90 0
90 97 98 0
-8 -98 0
92 -95 -99 0
95 -92 -99 0
-92 -95 99 0
92 95 99 0
-4 -99 0
95 -100 -101 0
100 -95 -101 0
101 -95 -100 0
101 95 100 0
-6 101 0
-92 102 0
-103 102 0
92 103 -102 0
95 -102 -104 0
-95 102 -104 0
-95 -102 104 0
95 102 104 0
-7 104 0
92 105 0
103 105 0
-92 -103 -105 0
-95 105 -106 0
95 -105 -106 0
106 -105 -95 0
95 105 106 0
-8 -106 0
100 -103 -107 0
103 -100 -107 0
-100 -103 107 0
100 103 107 0
-4 -107 0
103 -108 -109 0
108 -103 -109 0
109 -103 -108 0
109 103 108 0
-6 109 0
-100 110 0
-111 110 0
100 111 -110 0
103 -110 -112 0
-103 110 -112 0
-103 -110 112 0
103 110 112 0
-7 112 0
100 113 0
111 113 0
-100 -111 -113 0
-103 113 -114 0
103 -113 -114 0
114 -113 -103 0
103 113 114 0
-8 -114 0
108 -111 -115 0
111 -108 -115 0
-108 -111 115 0
108 111 115 0
-4 -115 0
-92 111 -116 0
92 -111 -116 0
116 -111 -92 0
116 111 92 0
-6 116 0
-92 117 0
-100 117 0
-108 117 0
92 100 108 -117 0
111 -117 -118 0
-111 117 -118 0
-111 -117 118 0
111 117 118 0
-7 118 0
92 119 0
100 119 0
108 119 0
-92 -100 -108 -119 0
-111 119 -120 0
111 -119 -120 0
120 -119 -111 0
111 119 120 0
-8 -120 0
121 -122 -123 0
122 -121 -123 0
-121 -122 123 0
122 121 123 0
-4 -123 0
122 -124 -125 0
124 -122 -125 0
125 -122 -124 0
125 122 124 0
-6 125 0
-121 126 0
-127 126 0
121 127 -126 0
122 -126 -128 0
-122 126 -128 0
-122 -126 128 0
122 126 128 0
-7 128 0
121 129 0
127 129 0
-121 -127 -129 0
-122 129 -130 0
122 -129 -130 0
130 -129 -122 0
122 129 130 0
-8 -130 0
124 -127 -131 0
127 -124 -131 0
-124 -127 131 0
124 127 131 0
-4 -131 0
127 -132 -133 0
132 -127 -133 0
133 -127 -132 0
133 127 132 0
-6 133 0
-124 134 0
-135 134 0
124 135 -134 0
127 -134 -136 0
-127 134 -136 0
-127 -134 136 0
127 134 136 0
-7 136 0
124 137 0
135 137 0
-124 -135 -137 0
-127 137 -138 0
127 -137 -138 0
138 -137 -127 0
127 137 138 0
-8 -138 0
132 -135 -139 0
135 -132 -139 0
-132 -135 139 0
132 135 139 0
-4 -139 0
135 -140 -141 0
140 -135 -141 0
141 -135 -140 0
141 135 140 0
-6 141 0
-132 142 0
-143 142 0
132 143 -142 0
135 -142 -144 0
-135 142 -144 0
-135 -142 144 0
135 142 144 0
-7 144 0
132 145 0
143 145 0
-132 -143 -145 0
-135 145 -146 0
135 -145 -146 0
146 -145 -135 0
135 145 146 0
-8 -146 0
140 -143 -147 0
143 -140 -147 0
-140 -143 147 0
140 143 147 0
-4 -147 0
-132 143 -148 0
132 -143 -148 0
148 -143 -132 0
148 143 132 0
-6 148 0
-132 149 0
-140 149 0
132 140 -149 0
143 -149 -150 0
-143 149 -150 0
-143 -149 150 0
143 149 150 0
-7 150 0
132 151 0
140 151 0
-132 -140 -151 0
-143 151 -152 0
143 -151 -152 0
152 -151 -143 0
143 151 152 0
-8 -152 0
153 -154 -155 0
154 -153 -155 0
-153 -154 155 0
154 153 155 0
-4 -155 0
154 -156 -157 0
156 -154 -157 0
157 -154 -156 0
157 154 156 0
-6 157 0
-153 158 0
-159 158 0
153 159 -158 0
154 -158 -160 0
-154 158 -160 0
-154 -158 160 0
154 158 160 0
-7 160 0
153 161 0
159 161 0
-153 -159 -161 0
-154 161 -162 0
154 -161 -162 0
162 -161 -154 0
154 161 162 0
-8 -162 0
156 -159 -163 0
159 -156 -163 0
-156 -159 163 0
156 159 163 0
-4 -163 0
159 -164 -165 0
164 -159 -165 0
165 -159 -164 0
165 159 164 0
-6 165 0
-156 166 0
-167 166 0
156 167 -166 0
159 -166 -168 0
-159 166 -168 0
-159 -166 168 0
159 166 168 0
-7 168 0
156 169 0
167 169 0
-156 -167 -169 0
-159 169 -170 0
159 -169 -170 0
170 -169 -159 0
159 169 170 0
-8 -170 0
164 -167 -171 0
167 -164 -171 0
-164 -167 171 0
164 167 171 0
-4 -171 0
167 -172 -173 0
172 -167 -173 0
173 -167 -172 0
173 167 172 0
-6 173 0
-164 174 0
-175 174 0
164 175 -174 0
167 -174 -176 0
-167 174 -176 0
-167 -174 176 0
167 174 176 0
-7 176 0
164 177 0
175 177 0
-164 -175 -177 0
-167 177 -178 0
167 -177 -178 0
178 -177 -167 0
167 177 178 0
-8 -178 0
172 -175 -179 0
175 -172 -179 0
-172 -175 179 0
172 175 179 0
-4 -179 0
175 -180 -181 0
180 -175 -181 0
181 -175 -180 0
181 175 180 0
-6 181 0
-172 182 0
-183 182 0
172 183 -182 0
175 -182 -184 0
-175 182 -184 0
-175 -182 184 0
175 182 184 0
-7 184 0
172 185 0
183 185 0
-172 -183 -185 0
-175 185 -186 0
175 -185 -186 0
186 -185 -175 0
175 185 186 0
-8 -186 0
180 -183 -187 0
183 -180 -187 0
-180 -183 187 0
180 183 187 0
-4 -187 0
183 -188 -189 0
188 -183 -189 0
189 -183 -188 0
189 183 188 0
-6 189 0
-180 190 0
-191 190 0
180 191 -190 0
183 -190 -192 0
-183 190 -192 0
-183 -190 192 0
183 190 192 0
-7 192 0
180 193 0
191 193 0
-180 -191 -193 0
-183 193 -194 0
183 -193 -194 0
194 -193 -183 0
183 193 194 0
-8 -194 0
188 -191 -195 0
191 -188 -195 0
-188 -191 195 0
188 191 195 0
-4 -195 0
191 -196 -197 0
196 -191 -197 0
197 -191 -196 0
197 191 196 0
-6 197 0
-188 198 0
-199 198 0
188 199 -198 0
191 -198 -200 0
-191 198 -200 0
-191 -198 200 0
191 198 200 0
-7 200 0
188 201 0
199 201 0
-188 -199 -201 0
-191 201 -202 0
191 -201 -202 0
202 -201 -191 0
191 201 202 0
-8 -202 0
196 -199 -203 0
199 -196 -203 0
-196 -199 203 0
196 199 203 0
-4 -203 0
199 -204 -205 0
204 -199 -205 0
205 -199 -204 0
205 199 204 0
-6 205 0
-196 206 0
-207 206 0
196 207 -206 0
199 -206 -208 0
-199 206 -208 0
-199 -206 208 0
199 206 208 0
-7 208 0
196 209 0
207 209 0
-196 -207 -209 0
-199 209 -210 0
199 -209 -210 0
210 -209 -199 0
199 209 210 0
-8 -210 0
204 -207 -211 0
207 -204 -211 0
-204 -207 211 0
204 207 211 0
-4 -211 0
-180 207 -212 0
180 -207 -212 0
212 -207 -180 0
212 207 180 0
-6 212 0
-180 213 0
-188 213 0
-196 213 0
-204 213 0
180 188 196 204 -213 0
207 -213 -214 0
-207 213 -214 0
-207 -213 214 0
207 213 214 0
-7 214 0
180 215 0
188 215 0
196 215 0
204 215 0
-216 0
-207 215 -217 0
207 -215 -217 0
217 -215 -207 0
207 215 217 0
-8 -217 0
218 -219 -220 0
219 -218 -220 0
-218 -219 220 0
219 218 220 0
-4 -220 0
219 -221 -222 0
221 -219 -222 0
222 -219 -221 0
222 219 221 0
-6 222 0
-218 223 0
-224 223 0
218 224 -223 0
219 -223 -225 0
-219 223 -225 0
-219 -223 225 0
219 223 225 0
-7 225 0
218 226 0
224 226 0
-218 -224 -226 0
-219 226 -227 0
219 -226 -227 0
227 -226 -219 0
219 226 227 0
-8 -227 0
221 -224 -228 0
224 -221 -228 0
-221 -224 228 0
221 224 228 0
-4 -228 0
224 -229 -230 0
229 -224 -230 0
230 -224 -229 0
230 224 229 0
-6 230 0
-221 231 0
-232 231 0
221 232 -231 0
224 -231 -233 0
-224 231 -233 0
-224 -231 233 0
224 231 233 0
-7 233 0
221 234 0
232 234 0
-221 -232 -234 0
-224 234 -235 0
224 -234 -235 0
235 -234 -224 0
224 234 235 0
-8 -235 0
229 -232 -236 0
232 -229 -236 0
-229 -232 236 0
229 232 236 0
-4 -236 0
232 -237 -238 0
237 -232 -238 0
238 -232 -237 0
238 232 237 0
-6 238 0
-229 239 0
-240 239 0
229 240 -239 0
232 -239 -241 0
-232 239 -241 0
-232 -239 241 0
232 239 241 0
-7 241 0
229 242 0
240 242 0
-229 -240 -242 0
-232 242 -243 0
232 -242 -243 0
243 -242 -232 0
232 242 243 0
-8 -243 0
237 -240 -244 0
240 -237 -244 0
-237 -240 244 0
237 240 244 0
-4 -244 0
240 -245 -246 0
245 -240 -246 0
246 -240 -245 0
246 240 245 0
-6 246 0
-237 247 0
-248 247 0
237 248 -247 0
240 -247 -249 0
-240 247 -249 0
-240 -247 249 0
240 247 249 0
-7 249 0
237 250 0
248 250 0
-237 -248 -250 0
-240 250 -251 0
240 -250 -251 0
251 -250 -240 0
240 250 251 0
-8 -251 0
245 -248 -252 0
248 -245 -252 0
-245 -248 252 0
245 248 252 0
-4 -252 0
248 -253 -254 0
253 -248 -254 0
254 -248 -253 0
254 248 253 0
-6 254 0
-245 255 0
-256 255 0
245 256 -255 0
248 -255 -257 0
-248 255 -257 0
-248 -255 257 0
248 255 257 0
-7 257 0
245 258 0
256 258 0
-245 -256 -258 0
-248 258 -259 0
248 -258 -259 0
259 -258 -248 0
248 258 259 0
-8 -259 0
253 -256 -260 0
256 -253 -260 0
-253 -256 260 0
253 256 260 0
-4 -260 0
-229 256 -261 0
229 -256 -261 0
261 -256 -229 0
261 256 229 0
-6 261 0
-229 262 0
-237 262 0
-245 262 0
-253 262 0
229 237 245 253 -262 0
256 -262 -263 0
-256 262 -263 0
-256 -262 263 0
256 262 263 0
-7 263 0
229 264 0
237 264 0
245 264 0
253 264 0
-265 0
-256 264 -266 0
256 -264 -266 0
266 -264 -256 0
256 264 266 0
-8 -266 0
267 -268 -269 0
268 -267 -269 0
-267 -268 269 0
268 267 269 0
-4 -269 0
268 -270 -271 0
270 -268 -271 0
271 -268 -270 0
271 268 270 0
-6 271 0
-267 272 0
-273 272 0
267 273 -272 0
268 -272 -274 0
-268 272 -274 0
-268 -272 274 0
268 272 274 0
-7 274 0
267 275 0
273 275 0
-267 -273 -275 0
-268 275 -276 0
268 -275 -276 0
276 -275 -268 0
268 275 276 0
-8 -276 0
270 -273 -277 0
273 -270 -277 0
-270 -273 277 0
270 273 277 0
-4 -277 0
273 -278 -279 0
278 -273 -279 0
279 -273 -278 0
279 273 278 0
-6 279 0
-270 280 0
-281 280 0
270 281 -280 0
273 -280 -282 0
-273 280 -282 0
-273 -280 282 0
273 280 282 0
-7 282 0
270 283 0
281 283 0
-270 -281 -283 0
-273 283 -284 0
273 -283 -284 0
284 -283 -273 0
273 283 284 0
-8 -284 0
278 -281 -285 0
281 -278 -285 0
-278 -281 285 0
278 281 285 0
-4 -285 0
281 -286 -287 0
286 -281 -287 0
287 -281 -286 0
287 281 286 0
-6 287 0
-278 288 0
-289 288 0
278 289 -288 0
281 -288 -290 0
-281 288 -290 0
-281 -288 290 0
281 288 290 0
-7 290 0
278 291 0
289 291 0
-278 -289 -291 0
-281 291 -292 0
281 -291 -292 0
292 -291 -281 0
281 291 292 0
-8 -292 0
286 -289 -293 0
289 -286 -293 0
-286 -289 293 0
286 289 293 0
-4 -293 0
289 -294 -295 0
294 -289 -295 0
295 -289 -294 0
295 289 294 0
-6 295 0
-286 296 0
-297 296 0
286 297 -296 0
289 -296 -298 0
-289 296 -298 0
-289 -296 298 0
289 296 298 0
-7 298 0
286 299 0
297 299 0
-286 -297 -299 0
-289 299 -300 0
289 -299 -300 0
300 -299 -289 0
289 299 300 0
-8 -300 0
294 -297 -301 0
297 -294 -301 0
-294 -297 301 0
294 297 301 0
-4 -301 0
297 -302 -303 0
302 -297 -303 0
303 -297 -302 0
303 297 302 0
-6 303 0
-294 304 0
-305 304 0
294 305 -304 0
297 -304 -306 0
-297 304 -306 0
-297 -304 306 0
297 304 306 0
-7 306 0
294 307 0
305 307 0
-294 -305 -307 0
-297 307 -308 0
297 -307 -308 0
308 -307 -297 0
297 307 308 0
-8 -308 0
302 -305 -309 0
305 -302 -309 0
-302 -305 309 0
302 305 309 0
-4 -309 0
305 -310 -311 0
310 -305 -311 0
311 -305 -310 0
311 305 310 0
-6 311 0
-302 312 0
-313 312 0
302 313 -312 0
305 -312 -314 0
-305 312 -314 0
-305 -312 314 0
305 312 314 0
-7 314 0
302 315 0
313 315 0
-302 -313 -315 0
-305 315 -316 0
305 -315 -316 0
316 -315 -305 0
305 315 316 0
-8 -316 0
310 -313 -317 0
313 -310 -317 0
-310 -313 317 0
310 313 317 0
-4 -317 0
-286 313 -318 0
286 -313 -318 0
318 -313 -286 0
318 313 286 0
-6 318 0
-286 319 0
-294 319 0
-302 319 0
-310 319 0
286 294 302 310 -319 0
313 -319 -320 0
-313 319 -320 0
-313 -319 320 0
313 319 320 0
-7 320 0
286 321 0
294 321 0
302 321 0
310 321 0
-322 0
-313 321 -323 0
313 -321 -323 0
323 -321 -313 0
313 321 323 0
-8 -323 0
324 -325 -326 0
325 -324 -326 0
-324 -325 326 0
325 324 326 0
-4 -326 0
325 -327 -328 0
327 -325 -328 0
328 -325 -327 0
328 325 327 0
-6 328 0
-324 329 0
-330 329 0
324 330 -329 0
325 -329 -331 0
-325 329 -331 0
-325 -329 331 0
325 329 331 0
-7 331 0
324 332 0
330 332 0
-324 -330 -332 0
-325 332 -333 0
325 -332 -333 0
333 -332 -325 0
325 332 333 0
-8 -333 0
327 -330 -334 0
330 -327 -334 0
-327 -330 334 0
327 330 334 0
-4 -334 0
330 -327 -335 0
327 -330 -335 0
335 -330 -327 0
335 330 327 0
-6 335 0
-7 335 0
-8 335 0
336 -337 -338 0
337 -336 -338 0
-336 -337 338 0
337 336 338 0
-4 -338 0
337 -339 -340 0
339 -337 -340 0
340 -337 -339 0
340 337 339 0
-6 340 0
-336 341 0
-342 341 0
336 342 -341 0
337 -341 -343 0
-337 341 -343 0
-337 -341 343 0
337 341 343 0
-7 343 0
336 344 0
342 344 0
-336 -342 -344 0
-337 344 -345 0
337 -344 -345 0
345 -344 -337 0
337 344 345 0
-8 -345 0
339 -342 -346 0
342 -339 -346 0
-339 -342 346 0
339 342 346 0
-4 -346 0
342 -347 -348 0
347 -342 -348 0
348 -342 -347 0
348 342 347 0
-6 348 0
-339 349 0
-350 349 0
339 350 -349 0
342 -349 -351 0
-342 349 -351 0
-342 -349 351 0
342 349 351 0
-7 351 0
339 352 0
350 352 0
-339 -350 -352 0
-342 352 -353 0
342 -352 -353 0
353 -352 -342 0
342 352 353 0
-8 -353 0
347 -350 -354 0
350 -347 -354 0
-347 -350 354 0
347 350 354 0
-4 -354 0
350 -355 -356 0
355 -350 -356 0
356 -350 -355 0
356 350 355 0
-6 356 0
-347 357 0
-358 357 0
347 358 -357 0
350 -357 -359 0
-350 357 -359 0
-350 -357 359 0
350 357 359 0
-7 359 0
347 360 0
358 360 0
-347 -358 -360 0
-350 360 -361 0
350 -360 -361 0
361 -360 -350 0
350 360 361 0
-8 -361 0
355 -358 -362 0
358 -355 -362 0
-355 -358 362 0
355 358 362 0
-4 -362 0
358 -363 -364 0
363 -358 -364 0
364 -358 -363 0
364 358 363 0
-6 364 0
-355 365 0
-366 365 0
355 366 -365 0
358 -365 -367 0
-358 365 -367 0
-358 -365 367 0
358 365 367 0
-7 367 0
355 368 0
366 368 0
-355 -366 -368 0
-358 368 -369 0
358 -368 -369 0
369 -368 -358 0
358 368 369 0
-8 -369 0
363 -366 -370 0
366 -363 -370 0
-363 -366 370 0
363 366 370 0
-4 -370 0
366 -371 -372 0
371 -366 -372 0
372 -366 -371 0
372 366 371 0
-6 372 0
-363 373 0
-374 373 0
363 374 -373 0
366 -373 -375 0
-366 373 -375 0
-366 -373 375 0
366 373 375 0
-7 375 0
363 376 0
374 376 0
-363 -374 -376 0
-366 376 -377 0
366 -376 -377 0
377 -376 -366 0
366 376 377 0
-8 -377 0
371 -374 -378 0
374 -371 -378 0
-371 -374 378 0
371 374 378 0
-4 -378 0
374 -379 -380 0
379 -374 -380 0
380 -374 -379 0
380 374 379 0
-6 380 0
-371 381 0
-382 381 0
371 382 -381 0
374 -381 -383 0
-374 381 -383 0
-374 -381 383 0
374 381 383 0
-7 383 0
371 384 0
382 384 0
-371 -382 -384 0
-374 384 -385 0
374 -384 -385 0
385 -384 -374 0
374 384 385 0
-8 -385 0
379 -382 -386 0
382 -379 -386 0
-379 -382 386 0
379 382 386 0
-4 -386 0
-355 382 -387 0
355 -382 -387 0
387 -382 -355 0
387 382 355 0
-6 387 0
-355 388 0
-363 388 0
-371 388 0
-379 388 0
355 363 371 379 -388 0
382 -388 -389 0
-382 388 -389 0
-382 -388 389 0
382 388 389 0
-7 389 0
355 390 0
363 390 0
371 390 0
379 390 0
-391 0
-382 390 -392 0
382 -390 -392 0
392 -390 -382 0
382 390 392 0
-8 -392 0
393 -394 -395 0
394 -393 -395 0
-393 -394 395 0
394 393 395 0
-4 -395 0
394 -396 -397 0
396 -394 -397 0
397 -394 -396 0
397 394 396 0
-6 397 0
-393 398 0
-399 398 0
393 399 -398 0
394 -398 -400 0
-394 398 -400 0
-394 -398 400 0
394 398 400 0
-7 400 0
393 401 0
399 401 0
-393 -399 -401 0
-394 401 -402 0
394 -401 -402 0
402 -401 -394 0
394 401 402 0
-8 -402 0
396 -399 -403 0
399 -396 -403 0
-396 -399 403 0
396 399 403 0
-4 -403 0
399 -404 -405 0
404 -399 -405 0
405 -399 -404 0
405 399 404 0
-6 405 0
-396 406 0
-407 406 0
396 407 -406 0
399 -406 -408 0
-399 406 -408 0
-399 -406 408 0
399 406 408 0
-7 408 0
396 409 0
407 409 0
-396 -407 -409 0
-399 409 -410 0
399 -409 -410 0
410 -409 -399 0
399 409 410 0
-8 -410 0
404 -407 -411 0
407 -404 -411 0
-404 -407 411 0
404 407 411 0
-4 -411 0
407 -412 -413 0
412 -407 -413 0
413 -407 -412 0
413 407 412 0
-6 413 0
-404 414 0
-415 414 0
404 415 -414 0
407 -414 -416 0
-407 414 -416 0
-407 -414 416 0
407 414 416 0
-7 416 0
404 417 0
415 417 0
-404 -415 -417 0
-407 417 -418 0
407 -417 -418 0
418 -417 -407 0
407 417 418 0
-8 -418 0
412 -415 -419 0
415 -412 -419 0
-412 -415 419 0
412 415 419 0
-4 -419 0
415 -412 -420 0
412 -415 -420 0
420 -415 -412 0
420 415 412 0
-6 420 0
-7 420 0
-8 420 0
4 6 7 8 0
-4 -6 0
-4 -7 0
-4 -8 0
-6 -7 0
-6 -8 0
-7 -8 0
2 0
10 0
14 0
18 0
22 0
26 0
30 0
34 0
38 0
42 0
-46 0
-66 0
-90 0
-122 0
-154 0
-219 0
-268 0
-325 0
-337 0
-394 0
1 -9 0
-1 9 0
1 -13 0
-1 13 0
1 -17 0
-1 17 0
1 -21 0
-1 21 0
1 -25 0
-1 25 0
1 -29 0
-1 29 0
1 -33 0
-1 33 0
1 -37 0
-1 37 0
1 -41 0
-1 41 0
1 -56 0
-1 56 0
9 -13 0
-9 13 0
9 -17 0
-9 17 0
9 -21 0
-9 21 0
9 -25 0
-9 25 0
9 -29 0
-9 29 0
9 -33 0
-9 33 0
9 -37 0
-9 37 0
9 -41 0
-9 41 0
9 -56 0
-9 56 0
13 -17 0
-13 17 0
13 -21 0
-13 21 0
13 -25 0
-13 25 0
13 -29 0
-13 29 0
13 -33 0
-13 33 0
13 -37 0
-13 37 0
13 -41 0
-13 41 0
13 -56 0
-13 56 0
17 -21 0
-17 21 0
17 -25 0
-17 25 0
17 -29 0
-17 29 0
17 -33 0
-17 33 0
17 -37 0
-17 37 0
17 -41 0
-17 41 0
17 -56 0
-17 56 0
21 -25 0
-21 25 0
21 -29 0
-21 29 0
21 -33 0
-21 33 0
21 -37 0
-21 37 0
21 -41 0
-21 41 0
21 -56 0
-21 56 0
25 -29 0
-25 29 0
25 -33 0
-25 33 0
25 -37 0
-25 37 0
25 -41 0
-25 41 0
25 -56 0
-25 56 0
29 -33 0
-29 33 0
29 -37 0
-29 37 0
29 -41 0
-29 41 0
29 -56 0
-29 56 0
33 -37 0
-33 37 0
33 -41 0
-33 41 0
33 -56 0
-33 56 0
37 -41 0
-37 41 0
37 -56 0
-37 56 0
41 -56 0
-41 56 0
65 -100 0
-65 100 0
68 -108 0
-68 108 0
76 -92 0
-76 92 0
180 -253 0
-180 253 0
188 -229 0
-188 229 0
196 -237 0
-196 237 0
204 -245 0
-204 245 0
180 -379 0
-180 379 0
188 -355 0
-188 355 0
196 -363 0
-196 363 0
204 -371 0
-204 371 0
218 -339 0
-218 339 0
221 -347 0
-221 347 0
229 -355 0
-229 355 0
237 -363 0
-237 363 0
245 -371 0
-245 371 0
253 -379 0
-253 379 0
324 -404 0
-324 404 0
327 -412 0
-327 412 0
